Test: chnl10_11.cnf
Options: -print-activity -no-inverting-opt -activity-nl-freq=1
WARNING: for repeatability, setting FPU to use double precision
============================[ Problem Statistics ]=============================
|                                                                             |
|  Number of symmetries:           39                                         |
|  Number of invertingSyms:         0                                         |
|  Number of variables:           220                                         |
|  Number of clauses:            1122                                         |
|  Parse time:                   0.00 s                                       |
|                                                                             |
============================[ Search Statistics ]==============================
| Conflicts |          ORIGINAL         |          LEARNT          | Progress |
|           |    Vars  Clauses Literals |    Limit  Clauses Lit/Cl |          |
===============================================================================
ActiveSyms: 39
ActiveSyms: 36
ActiveSyms: 36
ActiveSyms: 36
ActiveSyms: 36
ActiveSyms: 36
ActiveSyms: 34
ActiveSyms: 34
ActiveSyms: 34
ActiveSyms: 34
ActiveSyms: 34
ActiveSyms: 34
ActiveSyms: 34
ActiveSyms: 34
ActiveSyms: 34
ActiveSyms: 32
ActiveSyms: 32
ActiveSyms: 32
ActiveSyms: 32
ActiveSyms: 32
ActiveSyms: 32
ActiveSyms: 32
ActiveSyms: 32
ActiveSyms: 30
ActiveSyms: 30
ActiveSyms: 30
ActiveSyms: 30
ActiveSyms: 30
ActiveSyms: 30
ActiveSyms: 30
ActiveSyms: 28
ActiveSyms: 28
ActiveSyms: 28
ActiveSyms: 28
ActiveSyms: 28
ActiveSyms: 28
ActiveSyms: 26
ActiveSyms: 26
ActiveSyms: 26
ActiveSyms: 26
ActiveSyms: 26
ActiveSyms: 24
ActiveSyms: 24
ActiveSyms: 22
ActiveSyms: 24
ActiveSyms: 22
ActiveSyms: 24
ActiveSyms: 22
ActiveSyms: 20
ActiveSyms: 20
ActiveSyms: 18
ActiveSyms: 20
ActiveSyms: 22
ActiveSyms: 24
ActiveSyms: 22
ActiveSyms: 20
ActiveSyms: 19
ActiveSyms: 19
ActiveSyms: 19
ActiveSyms: 20
ActiveSyms: 24
ActiveSyms: 22
ActiveSyms: 22
ActiveSyms: 19
ActiveSyms: 19
ActiveSyms: 20
ActiveSyms: 20
ActiveSyms: 20
ActiveSyms: 19
ActiveSyms: 20
ActiveSyms: 19
ActiveSyms: 24
ActiveSyms: 24
ActiveSyms: 26
ActiveSyms: 28
ActiveSyms: 30
ActiveSyms: 32
ActiveSyms: 34
ActiveSyms: 39
===============================================================================
restarts              : 1
conflicts             : 20             (5000 /sec)
symconflicts          : 9              (2250 /sec)
decisions             : 59             (0.00 % random) (14750 /sec)
propagations          : 380            (95000 /sec)
sympropagations       : 71             (17750 /sec)
conflict literals     : 522            (1.88 % deleted)
literals     : 522            (1.88 % deleted)

HEURISTIC USAGES
random                : 0           
activity w/ lookahead : 0           
activity no lookahead : 59          
original sp           : 0           
sym count             : 0           

Memory used           : 5.00 MB
CPU time              : 0.004 s

UNSATISFIABLE
